(set-info :source  loris-7.ddns.comp.nus.edu.sg/~project/hip/) 
;Variables declarations
(declare-fun n_2840 () Int)
(declare-fun next_396_2837 () Int)
(declare-fun n () Int)
(declare-fun flted_14_2830 () Int)
(declare-fun q_2832 () Int)
(declare-fun xs_primed () Int)
(declare-fun tmp_primed () Int)
(declare-fun q_2847 () Int)
(declare-fun xs () Int)
(declare-fun ys_primed () Int)
(declare-fun xs_2839 () Int)
(declare-fun ys_2838 () Int)
(declare-fun m () Int)
(declare-fun ys () Int)
;Relations declarations
;Axioms assertions
;Antecedent
(assert (= n_2840 flted_14_2830))
(assert (= next_396_2837 q_2832))
(assert (= (+ flted_14_2830 1) n))
(assert (or (and (< q_2832 1) (= flted_14_2830 0)) (and (<= 1 flted_14_2830) (> q_2832 0))))
(assert (= tmp_primed q_2832))
(assert (= xs_primed tmp_primed))
(assert (= xs_2839 1))
(assert (= q_2847 ys_2838))
(assert (> xs_2839 0))
(assert (= xs_2839 xs))
(assert (= ys_primed xs_2839))
(assert (= ys_2838 ys))
(assert (or (and (< ys 1) (= m 0)) (and (<= 1 m) (> ys 0))))
;Negation of Consequence
(assert (not (or (= m 0) (< ys 1))))
(check-sat)